108194.33 0
0 1 71 72 69 70 66 67 68 56 57 63 64 65 4 3 15 14 13 16 17 18 19 20 21 2 22 23 24 25 34 33 32 26 27 12 10 11 28 31 29 30 8 9 5 6 7 61 62 58 59 60 38 37 36 39 40 41 42 43 44 45 46 47 48 49 50 51 35 52 53 54 55 74 73 75